CMD:
./solvers/bin/cadical --plain --no-reduce -t 1600 ./data/cnfs//bjrb07amba10andenv/bjrb07amba10andenv.6.cnf

c --- [ banner ] -------------------------------------------------------------
c 
c CaDiCaL SAT Solver
c Copyright (c) 2016-2024
c A. Biere, M. Fleury, N. Froleyks, K. Fazekas, F. Pollitt, T. Faller
c JKU Linz, University of Freiburg, TU Wien
c 
c Version 2.1.3 5296d3d2a9bf48c154ab2acb5e44625776d821bf
c g++ (Gentoo 12.3.1_p20230526 p2) 12.3.1 20230526 -Wall -Wextra -O3 -DNDEBUG
c Sat Aug 9 07:26:21 PDT 2025 Linux cedar2.int.cedar.computecanada.ca 5.14.0-362.24.2.el9_3.x86_64 x86_64
c 
c --- [ limit ] --------------------------------------------------------------
c 
c setting time limit to 1600 seconds real time (due to '-t 1600')
c 
c --- [ parsing input ] ------------------------------------------------------
c 
c reading DIMACS file from './data/cnfs//bjrb07amba10andenv/bjrb07amba10andenv.6.cnf'
c opening file to read './data/cnfs//bjrb07amba10andenv/bjrb07amba10andenv.6.cnf'
c found 'p cnf 686265 2058168' header
c parsed 2058168 clauses in 0.41 seconds process time
c 
c --- [ options ] ------------------------------------------------------------
c 
c   --compact=false                (different from default 'true')
c   --decompose=false              (different from default 'true')
c   --deduplicate=false            (different from default 'true')
c   --elim=false                   (different from default 'true')
c   --probe=false                  (different from default 'true')
c   --reduce=false                 (different from default 'true')
c   --subsume=false                (different from default 'true')
c   --ternary=false                (different from default 'true')
c   --transred=false               (different from default 'true')
c   --vivify=false                 (different from default 'true')
c 
c --- [ solving ] ------------------------------------------------------------
c 
c time measured in process time since initialization
c 
c  seconds   reductions  redundant   irredundant
c          MB    restarts       trail        variables
c           level   conflicts       glue           remaining
c 
c *  0.41 302  0 0   0    0    0  0% 0 1869138 582928 85%
c {  0.48 306  0 0   0    0    0  0% 0 1869138 582928 85%
c i  0.51 306 52 0   0   21   19 27% 2 1869138 582736 85%
c i  0.70 310 40 0  10  133  125 27% 3 1869138 582722 85%
c i  0.75 310 43 0  10  144  133 28% 3 1869138 580597 85%
c i  0.75 310 42 0  10  147  135 28% 3 1869138 580370 85%
c i  0.75 310 42 0  10  150  135 28% 3 1869138 580139 85%
c i  0.75 310 42 0  10  151  135 28% 3 1869138 578907 84%
c i  0.75 310 41 0  10  153  135 28% 3 1869138 578375 84%
c i  0.75 310 41 0  10  155  132 27% 3 1869138 578144 84%
c i  0.75 310 40 0  10  157  133 27% 3 1869138 577279 84%
c i  0.76 310 40 0  10  158  133 27% 2 1869138 576524 84%
c i  0.76 310 40 0  10  159  133 27% 2 1869138 575873 84%
c i  0.85 311 34 0  13  210  180 28% 3 1869138 573931 84%
c i  0.87 311 34 0  13  227  196 27% 3 1869138 573930 84%
c i  0.87 311 34 0  13  229  197 27% 3 1869138 572866 83%
c i  0.87 311 34 0  13  231  197 27% 3 1869138 572859 83%
c i  0.87 311 34 0  13  233  197 27% 2 1869138 572849 83%
c i  0.88 311 33 0  13  236  198 27% 2 1869138 572835 83%
c i  0.88 311 33 0  13  239  200 27% 2 1869138 572831 83%
c 
c  seconds   reductions  redundant   irredundant
c          MB    restarts       trail        variables
c           level   conflicts       glue           remaining
c 
c i  0.88 311 33 0  13  240  200 27% 2 1869138 572830 83%
c i  0.88 311 33 0  13  242  200 27% 2 1869138 572822 83%
c i  0.88 311 33 0  13  243  200 27% 2 1869138 572821 83%
c i  0.88 311 33 0  13  244  200 27% 2 1869138 572816 83%
c i  0.92 311 32 0  14  261  214 27% 3 1869138 570404 83%
c i  1.02 311 32 0  24  293  244 27% 3 1869138 570321 83%
c i  1.02 311 32 0  24  294  244 27% 3 1869138 569649 83%
c i  1.03 311 31 0  26  298  247 27% 3 1869138 569616 83%
c i  1.03 311 31 0  26  299  247 27% 3 1869138 568961 83%
c i  1.04 311 31 0  27  302  249 27% 3 1869138 568949 83%
c i  1.04 311 31 0  28  305  251 27% 3 1869138 568943 83%
c i  1.05 311 31 0  29  308  253 27% 3 1869138 568942 83%
c i  1.09 312 30 0  30  343  285 27% 3 1869138 568941 83%
c i  1.10 312 30 0  30  344  285 27% 3 1869138 568933 83%
c i  1.12 312 29 0  31  349  289 27% 3 1869138 565039 82%
c i  1.17 312 28 0  35  375  313 27% 3 1869138 565027 82%
c i  1.18 312 28 0  35  378  315 27% 3 1869138 565026 82%
c i  1.20 312 28 0  37  391  326 27% 3 1869138 565025 82%
c i  1.20 312 27 0  37  392  326 26% 3 1869138 565024 82%
c i  1.20 312 27 0  37  393  326 26% 3 1869138 565021 82%
c 
c  seconds   reductions  redundant   irredundant
c          MB    restarts       trail        variables
c           level   conflicts       glue           remaining
c 
c i  1.22 312 27 0  37  409  341 26% 3 1869138 564310 82%
c i  1.22 312 26 0  37  414  344 26% 3 1869138 560051 82%
c i  1.22 312 26 0  37  415  344 26% 3 1869138 558105 81%
c i  1.23 312 26 0  37  418  346 26% 3 1869138 558102 81%
c i  1.24 312 26 0  37  419  346 26% 3 1869138 558096 81%
c i  1.24 312 26 0  37  420  346 26% 3 1869138 558095 81%
c i  1.27 312 26 0  37  440  360 26% 3 1869138 558061 81%
c i  1.27 312 26 0  37  442  361 26% 3 1869138 558060 81%
c }  1.27 312 26 0  37  446  363 26% 3 1869138 554218 81%
c 0  1.27 312 26 0  37  446  363 26% 3 1869138 554218 81%
c 
c --- [ result ] -------------------------------------------------------------
c 
s UNSATISFIABLE
c 
c --- [ run-time profiling ] -------------------------------------------------
c 
c process time taken by individual solving procedures
c (percentage relative to process time for solving)
c 
c         0.86   99.99% search
c         0.79   92.12% unstable
c         0.41   47.56% parse
c         0.07    7.86% lucky
c         0.00    0.00% simplify
c   =================================
c         0.86   67.74% solve
c 
c last line shows process time for solving
c (percentage relative to total process time)
c 
c --- [ statistics ] ---------------------------------------------------------
c 
c chronological:               269        60.31 %  of conflicts
c conflicts:                   446       518.36    per second
c decisions:                  2055      2388.42    per second
c fixed:                    132047        19.24 %  of all variables
c learned:                     429        96.19 %  per conflict
c learned_lits:               2719       100.00 %  learned literals
c minimized:                     0         0.00 %  learned literals
c shrunken:                    460        16.92 %  learned literals
c minishrunken:                158         5.81 %  learned literals
c otfs:                          4         0.90 %  of conflict
c propagations:            6816926         7.92 M  per second
c restarts:                     37        12.05    interval
c subsumed:                     12         0.00 %  of all clauses
c strengthened:                  4         0.00 %  of all clauses
c 
c seconds are measured in process time for solving
c 
c --- [ resources ] ----------------------------------------------------------
c 
c total process time since initialization:         1.27    seconds
c total real time since initialization:            1.28    seconds
c maximum resident set size of process:          309.61    MB
c 
c --- [ shutting down ] ------------------------------------------------------
c 
c exit 20
